p cnf 8 36
4 -6 -3 0
7 8 -1 0
3 -7 -4 0
-3 -2 1 0
1 -5 -7 0
6 2 -3 0
-4 -2 -8 0
8 -5 -1 0
-8 3 -4 0
-5 6 3 0
-7 -5 -6 0
2 -5 3 0
-2 -4 -7 0
2 -7 -3 0
7 -1 5 0
3 4 7 0
1 -8 -3 0
6 3 -2 0
6 3 1 0
5 2 1 0
2 1 -7 0
-5 8 3 0
6 -2 -5 0
3 -8 -2 0
4 8 -3 0
7 -2 -1 0
7 5 6 0
-3 8 -5 0
-3 -2 -6 0
3 -7 -4 0
-7 -5 4 0
-5 6 -1 0
1 6 -3 0
3 -1 -6 0
-1 -8 -3 0
-7 -3 -4 0
